benchmark/results/graph__10-1000-0.10-03_9/graph__10-1000-0.10-03_9_QuintonOs_Benders_aux.lp
\ This file has been generated by DOcplex
\ ENCODING=ISO-8859-1
\Problem name: Quinton Bounded Benders_auxiliary_sub

Minimize
 obj: 0.001533739650 pi_nr_a0 + 0.000849617672 pi_nr_a1
      + 0.001126126126 pi_nr_a2 + 0.001109877913 pi_nr_a3
      + 0.001265215666 pi_nr_a4 + 0.000831255195 pi_nr_a5
      + 0.000844855310 pi_nr_a6 + 0.001062699256 pi_nr_a7
      + 0.001296301105 pi_nr_a8 + 0.002230925821 pi_nr_a9 + pi_p_a1_a0
      + pi_p_a2_a0 + pi_p_a1_a4 + pi_p_a6_a9 + pi_p_a6_a5 + pi_p_a2_a2
      + pi_p_a6_a8 + 0.009263735931 pi_d_a0_a1_proc_2
      + 2405.995474060936 pi_d_a0_a1_proc_1 + 1.009065662675 pi_d_a1_a0_proc_2
      + 2406.995275987680 pi_d_a1_a0_proc_1
      + 1216.009114720347 pi_d_a0_a2_proc_2
      + 2418.995410297433 pi_d_a0_a2_proc_0
      + 1215.995325045352 pi_d_a0_a2_proc_1
      + 1191.009214678259 pi_d_a2_a0_proc_2
      + 2393.995510255344 pi_d_a2_a0_proc_0
      + 1190.995425003264 pi_d_a2_a0_proc_1
      + 1216.009114705100 pi_d_a0_a3_proc_2
      + 2418.995410297402 pi_d_a0_a3_proc_0
      + 1215.995325060843 pi_d_a0_a3_proc_1
      + 1191.009214662870 pi_d_a3_a0_proc_2
      + 2393.995510255171 pi_d_a3_a0_proc_0
      + 1190.995425018613 pi_d_a3_a0_proc_1 + 287.491241491445 pi_d_a0_a4_proc_2
      + 2112.720025349886 pi_d_a0_a4_proc_1 + 294.284514373725 pi_d_a4_a0_proc_2
      + 2119.513298232167 pi_d_a4_a0_proc_1
      + 1215.995411216831 pi_d_a0_a5_proc_0
      + 1190.995509335947 pi_d_a5_a0_proc_0
      + 1175.389676310908 pi_d_a0_a6_proc_2
      + 1208.349197792667 pi_d_a0_a6_proc_0
      + 1198.655427183025 pi_d_a6_a0_proc_2
      + 1231.614948664784 pi_d_a6_a0_proc_0
      + 1216.009020274176 pi_d_a0_a7_proc_2
      + 1215.995315851262 pi_d_a0_a7_proc_0
      + 1191.009309124430 pi_d_a7_a0_proc_2
      + 1190.995604701516 pi_d_a7_a0_proc_0
      + 1216.009108611838 pi_d_a0_a8_proc_2
      + 2288.610138710498 pi_d_a0_a8_proc_0
      + 1346.380584464550 pi_d_a0_a8_proc_1
      + 1191.009220753914 pi_d_a8_a0_proc_2
      + 2263.610250852574 pi_d_a8_a0_proc_0
      + 1321.380696606626 pi_d_a8_a0_proc_1 + 161.540619726733 pi_d_a0_a9_proc_2
      + 2407.711676474341 pi_d_a0_a9_proc_0
      + 2247.931519771200 pi_d_a0_a9_proc_1 + 159.084742411884 pi_d_a9_a0_proc_2
      + 2405.255799159492 pi_d_a9_a0_proc_0
      + 2245.475642456351 pi_d_a9_a0_proc_1 + 1191 pi_d_a1_a2_proc_2
      + 1191 pi_d_a1_a2_proc_1 + 1216 pi_d_a2_a1_proc_2 + 1216 pi_d_a2_a1_proc_1
      + 1215.999999984529 pi_d_a1_a3_proc_2
      + 1216.000000015267 pi_d_a1_a3_proc_1
      + 1190.999999984835 pi_d_a3_a1_proc_2
      + 1191.000000015573 pi_d_a3_a1_proc_1 + 294.275259001195 pi_d_a1_a4_proc_2
      + 2119.517832534631 pi_d_a1_a4_proc_1 + 287.482167465369 pi_d_a4_a1_proc_2
      + 2112.724740998805 pi_d_a4_a1_proc_1
      + 1174.678073380239 pi_d_a1_a6_proc_2
      + 1199.348700715087 pi_d_a6_a1_proc_2 + 1216 pi_d_a1_a7_proc_2
      + 1191 pi_d_a7_a1_proc_2 + 1215.999999983409 pi_d_a1_a8_proc_2
      + 1346.385265511116 pi_d_a1_a8_proc_1
      + 1190.999999983737 pi_d_a8_a1_proc_2
      + 1321.385265511444 pi_d_a8_a1_proc_1 + 159.271927976745 pi_d_a1_a9_proc_2
      + 2245.676617696207 pi_d_a1_a9_proc_1 + 161.335104763265 pi_d_a9_a1_proc_2
      + 2247.739794482728 pi_d_a9_a1_proc_1
      + 2406.999999984836 pi_d_a2_a3_proc_2
      + 2407.000000000051 pi_d_a2_a3_proc_0 + 1.000000015574 pi_d_a2_a3_proc_1
      + 2405.999999984529 pi_d_a3_a2_proc_2
      + 2405.999999999744 pi_d_a3_a2_proc_0 + 0.000000015266 pi_d_a3_a2_proc_1
      + 1503.515370620171 pi_d_a2_a4_proc_2 + 922.757944153607 pi_d_a2_a4_proc_1
      + 1484.242055846393 pi_d_a4_a2_proc_2 + 903.484629379829 pi_d_a4_a2_proc_1
      + 1215.786376953125 pi_d_a2_a5_proc_0
      + 1191.213623046875 pi_d_a5_a2_proc_0
      + 2402.513387047663 pi_d_a2_a6_proc_2
      + 1232.486612952337 pi_d_a2_a6_proc_0
      + 2377.513387047663 pi_d_a6_a2_proc_2
      + 1207.486612952337 pi_d_a6_a2_proc_0 + 2419 pi_d_a2_a7_proc_2
      + 1216 pi_d_a2_a7_proc_0 + 2394 pi_d_a7_a2_proc_2 + 1191 pi_d_a7_a2_proc_0
      + 2408.300601135805 pi_d_a2_a8_proc_2
      + 2277.915335657379 pi_d_a2_a8_proc_0 + 132.685866663512 pi_d_a2_a8_proc_1
      + 2404.699398831341 pi_d_a8_a2_proc_2
      + 2274.314133352915 pi_d_a8_a2_proc_0 + 129.084664359048 pi_d_a8_a2_proc_1
      + 1374.209583263666 pi_d_a2_a9_proc_2
      + 2417.394344434188 pi_d_a2_a9_proc_0
      + 1054.614272983128 pi_d_a2_a9_proc_1
      + 1352.397449476344 pi_d_a9_a2_proc_2
      + 2395.582210646867 pi_d_a9_a2_proc_0
      + 1032.802139195807 pi_d_a9_a2_proc_1
      + 1503.482167450116 pi_d_a3_a4_proc_2 + 922.724741014290 pi_d_a3_a4_proc_1
      + 1484.275258985813 pi_d_a4_a3_proc_2 + 903.517832549986 pi_d_a4_a3_proc_1
      + 1215.994057178393 pi_d_a3_a5_proc_0
      + 1191.005942821402 pi_d_a5_a3_proc_0
      + 2402.507963009098 pi_d_a3_a6_proc_2
      + 1232.481188928987 pi_d_a3_a6_proc_0
      + 2377.518811055593 pi_d_a6_a3_proc_2
      + 1207.492036975482 pi_d_a6_a3_proc_0
      + 2418.999999984681 pi_d_a3_a7_proc_2
      + 1215.999999999896 pi_d_a3_a7_proc_0
      + 2393.999999984683 pi_d_a7_a3_proc_2
      + 1190.999999999899 pi_d_a7_a3_proc_0
      + 2407.408984549676 pi_d_a3_a8_proc_2
      + 2277.023719086465 pi_d_a3_a8_proc_0 + 131.794250108121 pi_d_a3_a8_proc_1
      + 2405.591015386835 pi_d_a8_a3_proc_2
      + 2275.205749923624 pi_d_a8_a3_proc_0 + 129.976280945280 pi_d_a8_a3_proc_1
      + 1374.076743940935 pi_d_a3_a9_proc_2
      + 2417.261505126673 pi_d_a3_a9_proc_0
      + 1054.481433691135 pi_d_a3_a9_proc_1
      + 1352.530288768440 pi_d_a9_a3_proc_2
      + 2395.715049954177 pi_d_a9_a3_proc_0
      + 1032.934978518640 pi_d_a9_a3_proc_1
      + 1489.790414083552 pi_d_a4_a6_proc_2
      + 1464.993786478338 pi_d_a6_a4_proc_2
      + 1481.378713233283 pi_d_a4_a7_proc_2
      + 1506.378713233281 pi_d_a7_a4_proc_2
      + 1504.537892516874 pi_d_a4_a8_proc_2
      + 1054.165731578017 pi_d_a4_a8_proc_1
      + 1483.219533916836 pi_d_a8_a4_proc_2
      + 1032.847372977979 pi_d_a8_a4_proc_1 + 448.692353582726 pi_d_a4_a9_proc_2
      + 1954.339616835625 pi_d_a4_a9_proc_1 + 452.672105623848 pi_d_a9_a4_proc_2
      + 1958.319368876746 pi_d_a9_a4_proc_1 + 16.664772527050 pi_d_a5_a6_proc_0
      + 17.308453377623 pi_d_a6_a5_proc_0 + 0.999999999985 pi_d_a5_a7_proc_0
      + 0.000000000015 pi_d_a7_a5_proc_0 + 1062.023857729612 pi_d_a5_a8_proc_0
      + 1084.205611280682 pi_d_a8_a5_proc_0
      + 1190.993882654162 pi_d_a5_a9_proc_0
      + 1215.982672426893 pi_d_a9_a5_proc_0
      + 2390.692964036109 pi_d_a6_a7_proc_2 + 17.666189940783 pi_d_a6_a7_proc_0
      + 2389.333810059217 pi_d_a7_a6_proc_2 + 16.307035963891 pi_d_a7_a6_proc_0
      + 2378.745095190626 pi_d_a6_a8_proc_2
      + 1078.333055616874 pi_d_a6_a8_proc_0
      + 2401.281678871846 pi_d_a8_a6_proc_2
      + 1100.869639298094 pi_d_a8_a6_proc_0
      + 1359.246127595048 pi_d_a6_a9_proc_2
      + 1232.404114670245 pi_d_a6_a9_proc_0
      + 1334.387679240288 pi_d_a9_a6_proc_2
      + 1207.545666315484 pi_d_a9_a6_proc_0
      + 2417.283262014796 pi_d_a7_a8_proc_2
      + 1083.897996536370 pi_d_a7_a8_proc_0
      + 2395.716737952350 pi_d_a8_a7_proc_2
      + 1062.331472473925 pi_d_a8_a7_proc_0
      + 1375.797947019972 pi_d_a7_a9_proc_2
      + 1215.982708190495 pi_d_a7_a9_proc_0
      + 1350.809085720038 pi_d_a9_a7_proc_2
      + 1190.993846890560 pi_d_a9_a7_proc_0
      + 1374.172984843877 pi_d_a8_a9_proc_2
      + 2286.972480535974 pi_d_a8_a9_proc_0
      + 1184.962940091046 pi_d_a8_a9_proc_1
      + 1352.434047863279 pi_d_a9_a8_proc_2
      + 2265.233543555375 pi_d_a9_a8_proc_0
      + 1163.224003110448 pi_d_a9_a8_proc_1 + 0.000003773669 pi_y2_a0_proc_0
      + 0.000003844535 pi_y2_a0_proc_1 + 0.999992381796 pi_y2_a0_proc_2
      + 0.000000000000 pi_y2_a1_proc_1 + pi_y2_a1_proc_2
      + 0.000000000000 pi_y2_a2_proc_0 + pi_y2_a2_proc_1
      + 0.000000000000 pi_y2_a2_proc_2 + 0.000000000000 pi_y2_a3_proc_0
      + 0.999999999987 pi_y2_a3_proc_1 + 0.000000000013 pi_y2_a3_proc_2
      + 0.241378813993 pi_y2_a4_proc_1 + 0.758621186007 pi_y2_a4_proc_2
      + pi_y2_a5_proc_0 + 0.986295417330 pi_y2_a6_proc_0
      + 0.013704582670 pi_y2_a6_proc_2 + pi_y2_a7_proc_0
      + 0.000000000000 pi_y2_a7_proc_2 + 0.108383429339 pi_y2_a8_proc_0
      + 0.891616570647 pi_y2_a8_proc_1 + 0.000000000014 pi_y2_a8_proc_2
      + 0.000009744355 pi_y2_a9_proc_0 + 0.132827758862 pi_y2_a9_proc_1
      + 0.867162496783 pi_y2_a9_proc_2
Subject To
 c1: 0.001533742331 pi_nr_a0 + 0.000849617672 pi_nr_a1 + 0.001126126126 pi_nr_a2
     + 0.001109877913 pi_nr_a3 + 0.001131221719 pi_nr_a4
     + 0.000831255195 pi_nr_a5 + 0.000843881857 pi_nr_a6
     + 0.001062699256 pi_nr_a7 + 0.001319261214 pi_nr_a8
     + 0.002380952381 pi_nr_a9 + pi_p_a1_a0 + pi_p_a2_a0 + pi_p_a1_a4
     + pi_p_a6_a9 + pi_p_a6_a5 + pi_p_a2_a2 + pi_p_a6_a8
     + 2406 pi_d_a0_a1_proc_1 + pi_d_a1_a0_proc_2 + 2407 pi_d_a1_a0_proc_1
     + 1216 pi_d_a0_a2_proc_2 + 2419 pi_d_a0_a2_proc_0 + 1216 pi_d_a0_a2_proc_1
     + 1191 pi_d_a2_a0_proc_2 + 2394 pi_d_a2_a0_proc_0 + 1191 pi_d_a2_a0_proc_1
     + 1216 pi_d_a0_a3_proc_2 + 2419 pi_d_a0_a3_proc_0 + 1216 pi_d_a0_a3_proc_1
     + 1191 pi_d_a3_a0_proc_2 + 2394 pi_d_a3_a0_proc_0 + 1191 pi_d_a3_a0_proc_1
     + 2406 pi_d_a0_a4_proc_1 + pi_d_a4_a0_proc_2 + 2407 pi_d_a4_a0_proc_1
     + 1216 pi_d_a0_a5_proc_0 + 1191 pi_d_a5_a0_proc_0 + 1191 pi_d_a0_a6_proc_2
     + 1191 pi_d_a0_a6_proc_0 + 1216 pi_d_a6_a0_proc_2 + 1216 pi_d_a6_a0_proc_0
     + 1216 pi_d_a0_a7_proc_2 + 1216 pi_d_a0_a7_proc_0 + 1191 pi_d_a7_a0_proc_2
     + 1191 pi_d_a7_a0_proc_0 + 1216 pi_d_a0_a8_proc_2 + 2419 pi_d_a0_a8_proc_0
     + 1216 pi_d_a0_a8_proc_1 + 1191 pi_d_a8_a0_proc_2 + 2394 pi_d_a8_a0_proc_0
     + 1191 pi_d_a8_a0_proc_1 + 2406 pi_d_a0_a9_proc_0 + 2406 pi_d_a0_a9_proc_1
     + pi_d_a9_a0_proc_2 + 2407 pi_d_a9_a0_proc_0 + 2407 pi_d_a9_a0_proc_1
     + 1191 pi_d_a1_a2_proc_2 + 1191 pi_d_a1_a2_proc_1 + 1216 pi_d_a2_a1_proc_2
     + 1216 pi_d_a2_a1_proc_1 + 1216 pi_d_a1_a3_proc_2 + 1216 pi_d_a1_a3_proc_1
     + 1191 pi_d_a3_a1_proc_2 + 1191 pi_d_a3_a1_proc_1 + pi_d_a1_a4_proc_2
     + 2407 pi_d_a1_a4_proc_1 + 2406 pi_d_a4_a1_proc_1 + 1191 pi_d_a1_a6_proc_2
     + 1216 pi_d_a6_a1_proc_2 + 1216 pi_d_a1_a7_proc_2 + 1191 pi_d_a7_a1_proc_2
     + 1216 pi_d_a1_a8_proc_2 + 1216 pi_d_a1_a8_proc_1 + 1191 pi_d_a8_a1_proc_2
     + 1191 pi_d_a8_a1_proc_1 + pi_d_a1_a9_proc_2 + 2407 pi_d_a1_a9_proc_1
     + 2406 pi_d_a9_a1_proc_1 + 2407 pi_d_a2_a3_proc_2 + 2407 pi_d_a2_a3_proc_0
     + pi_d_a2_a3_proc_1 + 2406 pi_d_a3_a2_proc_2 + 2406 pi_d_a3_a2_proc_0
     + 1216 pi_d_a2_a4_proc_2 + 1216 pi_d_a2_a4_proc_1 + 1191 pi_d_a4_a2_proc_2
     + 1191 pi_d_a4_a2_proc_1 + 1216 pi_d_a2_a5_proc_0 + 1191 pi_d_a5_a2_proc_0
     + 2419 pi_d_a2_a6_proc_2 + 1216 pi_d_a2_a6_proc_0 + 2394 pi_d_a6_a2_proc_2
     + 1191 pi_d_a6_a2_proc_0 + 2419 pi_d_a2_a7_proc_2 + 1216 pi_d_a2_a7_proc_0
     + 2394 pi_d_a7_a2_proc_2 + 1191 pi_d_a7_a2_proc_0 + 2407 pi_d_a2_a8_proc_2
     + 2407 pi_d_a2_a8_proc_0 + pi_d_a2_a8_proc_1 + 2406 pi_d_a8_a2_proc_2
     + 2406 pi_d_a8_a2_proc_0 + 1216 pi_d_a2_a9_proc_2 + 2419 pi_d_a2_a9_proc_0
     + 1216 pi_d_a2_a9_proc_1 + 1191 pi_d_a9_a2_proc_2 + 2394 pi_d_a9_a2_proc_0
     + 1191 pi_d_a9_a2_proc_1 + 1216 pi_d_a3_a4_proc_2 + 1216 pi_d_a3_a4_proc_1
     + 1191 pi_d_a4_a3_proc_2 + 1191 pi_d_a4_a3_proc_1 + 1216 pi_d_a3_a5_proc_0
     + 1191 pi_d_a5_a3_proc_0 + 2419 pi_d_a3_a6_proc_2 + 1216 pi_d_a3_a6_proc_0
     + 2394 pi_d_a6_a3_proc_2 + 1191 pi_d_a6_a3_proc_0 + 2419 pi_d_a3_a7_proc_2
     + 1216 pi_d_a3_a7_proc_0 + 2394 pi_d_a7_a3_proc_2 + 1191 pi_d_a7_a3_proc_0
     + 2406 pi_d_a3_a8_proc_2 + 2406 pi_d_a3_a8_proc_0 + 2407 pi_d_a8_a3_proc_2
     + 2407 pi_d_a8_a3_proc_0 + pi_d_a8_a3_proc_1 + 1216 pi_d_a3_a9_proc_2
     + 2419 pi_d_a3_a9_proc_0 + 1216 pi_d_a3_a9_proc_1 + 1191 pi_d_a9_a3_proc_2
     + 2394 pi_d_a9_a3_proc_0 + 1191 pi_d_a9_a3_proc_1 + 1216 pi_d_a4_a6_proc_2
     + 1191 pi_d_a6_a4_proc_2 + 1191 pi_d_a4_a7_proc_2 + 1216 pi_d_a7_a4_proc_2
     + 1216 pi_d_a4_a8_proc_2 + 1216 pi_d_a4_a8_proc_1 + 1191 pi_d_a8_a4_proc_2
     + 1191 pi_d_a8_a4_proc_1 + 2406 pi_d_a4_a9_proc_1 + pi_d_a9_a4_proc_2
     + 2407 pi_d_a9_a4_proc_1 + pi_d_a6_a5_proc_0 + pi_d_a5_a7_proc_0
     + 1191 pi_d_a5_a8_proc_0 + 1216 pi_d_a8_a5_proc_0 + 1191 pi_d_a5_a9_proc_0
     + 1216 pi_d_a9_a5_proc_0 + 2407 pi_d_a6_a7_proc_2 + pi_d_a6_a7_proc_0
     + 2406 pi_d_a7_a6_proc_2 + 2394 pi_d_a6_a8_proc_2 + 1191 pi_d_a6_a8_proc_0
     + 2419 pi_d_a8_a6_proc_2 + 1216 pi_d_a8_a6_proc_0 + 1216 pi_d_a6_a9_proc_2
     + 1216 pi_d_a6_a9_proc_0 + 1191 pi_d_a9_a6_proc_2 + 1191 pi_d_a9_a6_proc_0
     + 2419 pi_d_a7_a8_proc_2 + 1216 pi_d_a7_a8_proc_0 + 2394 pi_d_a8_a7_proc_2
     + 1191 pi_d_a8_a7_proc_0 + 1216 pi_d_a7_a9_proc_2 + 1216 pi_d_a7_a9_proc_0
     + 1191 pi_d_a9_a7_proc_2 + 1191 pi_d_a9_a7_proc_0 + 1216 pi_d_a8_a9_proc_2
     + 2419 pi_d_a8_a9_proc_0 + 1216 pi_d_a8_a9_proc_1 + 1191 pi_d_a9_a8_proc_2
     + 2394 pi_d_a9_a8_proc_0 + 1191 pi_d_a9_a8_proc_1 + pi_y2_a0_proc_2
     + pi_y2_a1_proc_2 + pi_y2_a2_proc_1 + pi_y2_a3_proc_1 + pi_y2_a4_proc_2
     + pi_y2_a5_proc_0 + pi_y2_a6_proc_0 + pi_y2_a7_proc_0 + pi_y2_a8_proc_1
     + pi_y2_a9_proc_2 = 0.000286697248
 c2: pi_nr_a0 + pi_nr_a1 + pi_nr_a2 + pi_nr_a3 + pi_nr_a4 + pi_nr_a5 + pi_nr_a6
     + pi_nr_a7 + pi_nr_a8 + pi_nr_a9 - pi_y1_a0 - pi_y1_a1 - pi_y1_a2
     - pi_y1_a3 - pi_y1_a4 - pi_y1_a5 - pi_y1_a6 - pi_y1_a7 - pi_y1_a8
     - pi_y1_a9 >= 1
 c3: - pi_p_a1_a0 - pi_p_a2_a0 + pi_p_a0_a3 + pi_d_a0_a1_proc_2
     + pi_d_a0_a1_proc_1 - pi_d_a1_a0_proc_2 - pi_d_a1_a0_proc_1
     + pi_d_a0_a2_proc_2 + pi_d_a0_a2_proc_0 + pi_d_a0_a2_proc_1
     - pi_d_a2_a0_proc_2 - pi_d_a2_a0_proc_0 - pi_d_a2_a0_proc_1
     + pi_d_a0_a3_proc_2 + pi_d_a0_a3_proc_0 + pi_d_a0_a3_proc_1
     - pi_d_a3_a0_proc_2 - pi_d_a3_a0_proc_0 - pi_d_a3_a0_proc_1
     + pi_d_a0_a4_proc_2 + pi_d_a0_a4_proc_1 - pi_d_a4_a0_proc_2
     - pi_d_a4_a0_proc_1 + pi_d_a0_a5_proc_0 - pi_d_a5_a0_proc_0
     + pi_d_a0_a6_proc_2 + pi_d_a0_a6_proc_0 - pi_d_a6_a0_proc_2
     - pi_d_a6_a0_proc_0 + pi_d_a0_a7_proc_2 + pi_d_a0_a7_proc_0
     - pi_d_a7_a0_proc_2 - pi_d_a7_a0_proc_0 + pi_d_a0_a8_proc_2
     + pi_d_a0_a8_proc_0 + pi_d_a0_a8_proc_1 - pi_d_a8_a0_proc_2
     - pi_d_a8_a0_proc_0 - pi_d_a8_a0_proc_1 + pi_d_a0_a9_proc_2
     + pi_d_a0_a9_proc_0 + pi_d_a0_a9_proc_1 - pi_d_a9_a0_proc_2
     - pi_d_a9_a0_proc_0 - pi_d_a9_a0_proc_1 >= 0
 c4: 915 pi_p_a0_a3 + 915 pi_d_a0_a2_proc_0 + 915 pi_d_a0_a3_proc_0
     + 915 pi_d_a0_a5_proc_0 + 915 pi_d_a0_a6_proc_0 + 915 pi_d_a0_a7_proc_0
     + 915 pi_d_a0_a8_proc_0 + 915 pi_d_a0_a9_proc_0 + pi_y1_a0
     + pi_y2_a0_proc_0 >= 0
 c5: 788 pi_p_a0_a3 + 788 pi_d_a0_a1_proc_1 + 788 pi_d_a0_a2_proc_1
     + 788 pi_d_a0_a3_proc_1 + 788 pi_d_a0_a4_proc_1 + 788 pi_d_a0_a8_proc_1
     + 788 pi_d_a0_a9_proc_1 + pi_y1_a0 + pi_y2_a0_proc_1 >= 0
 c6: 652 pi_p_a0_a3 + 652 pi_d_a0_a1_proc_2 + 652 pi_d_a0_a2_proc_2
     + 652 pi_d_a0_a3_proc_2 + 652 pi_d_a0_a4_proc_2 + 652 pi_d_a0_a6_proc_2
     + 652 pi_d_a0_a7_proc_2 + 652 pi_d_a0_a8_proc_2 + 652 pi_d_a0_a9_proc_2
     + pi_y1_a0 + pi_y2_a0_proc_2 >= 0
 c7: pi_p_a1_a0 + pi_p_a1_a4 - pi_p_a8_a1 - pi_d_a0_a1_proc_2
     - pi_d_a0_a1_proc_1 + pi_d_a1_a0_proc_2 + pi_d_a1_a0_proc_1
     + pi_d_a1_a2_proc_2 + pi_d_a1_a2_proc_1 - pi_d_a2_a1_proc_2
     - pi_d_a2_a1_proc_1 + pi_d_a1_a3_proc_2 + pi_d_a1_a3_proc_1
     - pi_d_a3_a1_proc_2 - pi_d_a3_a1_proc_1 + pi_d_a1_a4_proc_2
     + pi_d_a1_a4_proc_1 - pi_d_a4_a1_proc_2 - pi_d_a4_a1_proc_1
     + pi_d_a1_a6_proc_2 - pi_d_a6_a1_proc_2 + pi_d_a1_a7_proc_2
     - pi_d_a7_a1_proc_2 + pi_d_a1_a8_proc_2 + pi_d_a1_a8_proc_1
     - pi_d_a8_a1_proc_2 - pi_d_a8_a1_proc_1 + pi_d_a1_a9_proc_2
     + pi_d_a1_a9_proc_1 - pi_d_a9_a1_proc_2 - pi_d_a9_a1_proc_1 >= 0
 c8: 469 pi_p_a1_a0 + 469 pi_p_a1_a4 + 469 pi_d_a1_a0_proc_1
     + 469 pi_d_a1_a2_proc_1 + 469 pi_d_a1_a3_proc_1 + 469 pi_d_a1_a4_proc_1
     + 469 pi_d_a1_a8_proc_1 + 469 pi_d_a1_a9_proc_1 + pi_y1_a1
     + pi_y2_a1_proc_1 >= 0
 c9: 1177 pi_p_a1_a0 + 1177 pi_p_a1_a4 + 1177 pi_d_a1_a0_proc_2
     + 1177 pi_d_a1_a2_proc_2 + 1177 pi_d_a1_a3_proc_2 + 1177 pi_d_a1_a4_proc_2
     + 1177 pi_d_a1_a6_proc_2 + 1177 pi_d_a1_a7_proc_2 + 1177 pi_d_a1_a8_proc_2
     + 1177 pi_d_a1_a9_proc_2 + pi_y1_a1 + pi_y2_a1_proc_2 >= 0
 c10: pi_p_a2_a0 + pi_p_a2_a6 - pi_p_a7_a2 - pi_p_a9_a2 - pi_d_a0_a2_proc_2
      - pi_d_a0_a2_proc_0 - pi_d_a0_a2_proc_1 + pi_d_a2_a0_proc_2
      + pi_d_a2_a0_proc_0 + pi_d_a2_a0_proc_1 - pi_d_a1_a2_proc_2
      - pi_d_a1_a2_proc_1 + pi_d_a2_a1_proc_2 + pi_d_a2_a1_proc_1
      + pi_d_a2_a3_proc_2 + pi_d_a2_a3_proc_0 + pi_d_a2_a3_proc_1
      - pi_d_a3_a2_proc_2 - pi_d_a3_a2_proc_0 - pi_d_a3_a2_proc_1
      + pi_d_a2_a4_proc_2 + pi_d_a2_a4_proc_1 - pi_d_a4_a2_proc_2
      - pi_d_a4_a2_proc_1 + pi_d_a2_a5_proc_0 - pi_d_a5_a2_proc_0
      + pi_d_a2_a6_proc_2 + pi_d_a2_a6_proc_0 - pi_d_a6_a2_proc_2
      - pi_d_a6_a2_proc_0 + pi_d_a2_a7_proc_2 + pi_d_a2_a7_proc_0
      - pi_d_a7_a2_proc_2 - pi_d_a7_a2_proc_0 + pi_d_a2_a8_proc_2
      + pi_d_a2_a8_proc_0 + pi_d_a2_a8_proc_1 - pi_d_a8_a2_proc_2
      - pi_d_a8_a2_proc_0 - pi_d_a8_a2_proc_1 + pi_d_a2_a9_proc_2
      + pi_d_a2_a9_proc_0 + pi_d_a2_a9_proc_1 - pi_d_a9_a2_proc_2
      - pi_d_a9_a2_proc_0 - pi_d_a9_a2_proc_1 >= 0
 c11: 937 pi_p_a2_a0 + 937 pi_p_a2_a6 + 937 pi_p_a2_a2 + 937 pi_d_a2_a0_proc_0
      + 937 pi_d_a2_a3_proc_0 + 937 pi_d_a2_a5_proc_0 + 937 pi_d_a2_a6_proc_0
      + 937 pi_d_a2_a7_proc_0 + 937 pi_d_a2_a8_proc_0 + 937 pi_d_a2_a9_proc_0
      + pi_y1_a2 + pi_y2_a2_proc_0 >= 0
 c12: 888 pi_p_a2_a0 + 888 pi_p_a2_a6 + 888 pi_p_a2_a2 + 888 pi_d_a2_a0_proc_1
      + 888 pi_d_a2_a1_proc_1 + 888 pi_d_a2_a3_proc_1 + 888 pi_d_a2_a4_proc_1
      + 888 pi_d_a2_a8_proc_1 + 888 pi_d_a2_a9_proc_1 + pi_y1_a2
      + pi_y2_a2_proc_1 >= 0
 c13: 1144 pi_p_a2_a0 + 1144 pi_p_a2_a6 + 1144 pi_p_a2_a2
      + 1144 pi_d_a2_a0_proc_2 + 1144 pi_d_a2_a1_proc_2 + 1144 pi_d_a2_a3_proc_2
      + 1144 pi_d_a2_a4_proc_2 + 1144 pi_d_a2_a6_proc_2 + 1144 pi_d_a2_a7_proc_2
      + 1144 pi_d_a2_a8_proc_2 + 1144 pi_d_a2_a9_proc_2 + pi_y1_a2
      + pi_y2_a2_proc_2 >= 0
 c14: - pi_p_a0_a3 + pi_p_a3_a5 + pi_p_a3_a7 + pi_p_a3_a8 - pi_d_a0_a3_proc_2
      - pi_d_a0_a3_proc_0 - pi_d_a0_a3_proc_1 + pi_d_a3_a0_proc_2
      + pi_d_a3_a0_proc_0 + pi_d_a3_a0_proc_1 - pi_d_a1_a3_proc_2
      - pi_d_a1_a3_proc_1 + pi_d_a3_a1_proc_2 + pi_d_a3_a1_proc_1
      - pi_d_a2_a3_proc_2 - pi_d_a2_a3_proc_0 - pi_d_a2_a3_proc_1
      + pi_d_a3_a2_proc_2 + pi_d_a3_a2_proc_0 + pi_d_a3_a2_proc_1
      + pi_d_a3_a4_proc_2 + pi_d_a3_a4_proc_1 - pi_d_a4_a3_proc_2
      - pi_d_a4_a3_proc_1 + pi_d_a3_a5_proc_0 - pi_d_a5_a3_proc_0
      + pi_d_a3_a6_proc_2 + pi_d_a3_a6_proc_0 - pi_d_a6_a3_proc_2
      - pi_d_a6_a3_proc_0 + pi_d_a3_a7_proc_2 + pi_d_a3_a7_proc_0
      - pi_d_a7_a3_proc_2 - pi_d_a7_a3_proc_0 + pi_d_a3_a8_proc_2
      + pi_d_a3_a8_proc_0 + pi_d_a3_a8_proc_1 - pi_d_a8_a3_proc_2
      - pi_d_a8_a3_proc_0 - pi_d_a8_a3_proc_1 + pi_d_a3_a9_proc_2
      + pi_d_a3_a9_proc_0 + pi_d_a3_a9_proc_1 - pi_d_a9_a3_proc_2
      - pi_d_a9_a3_proc_0 - pi_d_a9_a3_proc_1 >= 0
 c15: 1109 pi_p_a3_a5 + 1109 pi_p_a3_a7 + 1109 pi_p_a3_a8
      + 1109 pi_d_a3_a0_proc_0 + 1109 pi_d_a3_a2_proc_0 + 1109 pi_d_a3_a5_proc_0
      + 1109 pi_d_a3_a6_proc_0 + 1109 pi_d_a3_a7_proc_0 + 1109 pi_d_a3_a8_proc_0
      + 1109 pi_d_a3_a9_proc_0 + pi_y1_a3 + pi_y2_a3_proc_0 >= 0
 c16: 901 pi_p_a3_a5 + 901 pi_p_a3_a7 + 901 pi_p_a3_a8 + 901 pi_d_a3_a0_proc_1
      + 901 pi_d_a3_a1_proc_1 + 901 pi_d_a3_a2_proc_1 + 901 pi_d_a3_a4_proc_1
      + 901 pi_d_a3_a8_proc_1 + 901 pi_d_a3_a9_proc_1 + pi_y1_a3
      + pi_y2_a3_proc_1 >= 0
 c17: 989 pi_p_a3_a5 + 989 pi_p_a3_a7 + 989 pi_p_a3_a8 + 989 pi_d_a3_a0_proc_2
      + 989 pi_d_a3_a1_proc_2 + 989 pi_d_a3_a2_proc_2 + 989 pi_d_a3_a4_proc_2
      + 989 pi_d_a3_a6_proc_2 + 989 pi_d_a3_a7_proc_2 + 989 pi_d_a3_a8_proc_2
      + 989 pi_d_a3_a9_proc_2 + pi_y1_a3 + pi_y2_a3_proc_2 >= 0
 c18: - pi_p_a1_a4 + pi_p_a4_a8 - pi_d_a0_a4_proc_2 - pi_d_a0_a4_proc_1
      + pi_d_a4_a0_proc_2 + pi_d_a4_a0_proc_1 - pi_d_a1_a4_proc_2
      - pi_d_a1_a4_proc_1 + pi_d_a4_a1_proc_2 + pi_d_a4_a1_proc_1
      - pi_d_a2_a4_proc_2 - pi_d_a2_a4_proc_1 + pi_d_a4_a2_proc_2
      + pi_d_a4_a2_proc_1 - pi_d_a3_a4_proc_2 - pi_d_a3_a4_proc_1
      + pi_d_a4_a3_proc_2 + pi_d_a4_a3_proc_1 + pi_d_a4_a6_proc_2
      - pi_d_a6_a4_proc_2 + pi_d_a4_a7_proc_2 - pi_d_a7_a4_proc_2
      + pi_d_a4_a8_proc_2 + pi_d_a4_a8_proc_1 - pi_d_a8_a4_proc_2
      - pi_d_a8_a4_proc_1 + pi_d_a4_a9_proc_2 + pi_d_a4_a9_proc_1
      - pi_d_a9_a4_proc_2 - pi_d_a9_a4_proc_1 >= 0
 c19: 593 pi_p_a4_a8 + 593 pi_d_a4_a0_proc_1 + 593 pi_d_a4_a1_proc_1
      + 593 pi_d_a4_a2_proc_1 + 593 pi_d_a4_a3_proc_1 + 593 pi_d_a4_a8_proc_1
      + 593 pi_d_a4_a9_proc_1 + pi_y1_a4 + pi_y2_a4_proc_1 >= 0
 c20: 884 pi_p_a4_a8 + 884 pi_d_a4_a0_proc_2 + 884 pi_d_a4_a1_proc_2
      + 884 pi_d_a4_a2_proc_2 + 884 pi_d_a4_a3_proc_2 + 884 pi_d_a4_a6_proc_2
      + 884 pi_d_a4_a7_proc_2 + 884 pi_d_a4_a8_proc_2 + 884 pi_d_a4_a9_proc_2
      + pi_y1_a4 + pi_y2_a4_proc_2 >= 0
 c21: - pi_p_a3_a5 - pi_p_a9_a5 - pi_p_a6_a5 + pi_p_a5_a6 - pi_d_a0_a5_proc_0
      + pi_d_a5_a0_proc_0 - pi_d_a2_a5_proc_0 + pi_d_a5_a2_proc_0
      - pi_d_a3_a5_proc_0 + pi_d_a5_a3_proc_0 + pi_d_a5_a6_proc_0
      - pi_d_a6_a5_proc_0 + pi_d_a5_a7_proc_0 - pi_d_a7_a5_proc_0
      + pi_d_a5_a8_proc_0 - pi_d_a8_a5_proc_0 + pi_d_a5_a9_proc_0
      - pi_d_a9_a5_proc_0 >= 0
 c22: 1203 pi_p_a5_a6 + 1203 pi_d_a5_a0_proc_0 + 1203 pi_d_a5_a2_proc_0
      + 1203 pi_d_a5_a3_proc_0 + 1203 pi_d_a5_a6_proc_0 + 1203 pi_d_a5_a7_proc_0
      + 1203 pi_d_a5_a8_proc_0 + 1203 pi_d_a5_a9_proc_0 + pi_y1_a5
      + pi_y2_a5_proc_0 >= 0
 c23: - pi_p_a2_a6 + pi_p_a6_a9 + pi_p_a6_a5 + pi_p_a6_a8 - pi_p_a5_a6
      - pi_d_a0_a6_proc_2 - pi_d_a0_a6_proc_0 + pi_d_a6_a0_proc_2
      + pi_d_a6_a0_proc_0 - pi_d_a1_a6_proc_2 + pi_d_a6_a1_proc_2
      - pi_d_a2_a6_proc_2 - pi_d_a2_a6_proc_0 + pi_d_a6_a2_proc_2
      + pi_d_a6_a2_proc_0 - pi_d_a3_a6_proc_2 - pi_d_a3_a6_proc_0
      + pi_d_a6_a3_proc_2 + pi_d_a6_a3_proc_0 - pi_d_a4_a6_proc_2
      + pi_d_a6_a4_proc_2 - pi_d_a5_a6_proc_0 + pi_d_a6_a5_proc_0
      + pi_d_a6_a7_proc_2 + pi_d_a6_a7_proc_0 - pi_d_a7_a6_proc_2
      - pi_d_a7_a6_proc_0 + pi_d_a6_a8_proc_2 + pi_d_a6_a8_proc_0
      - pi_d_a8_a6_proc_2 - pi_d_a8_a6_proc_0 + pi_d_a6_a9_proc_2
      + pi_d_a6_a9_proc_0 - pi_d_a9_a6_proc_2 - pi_d_a9_a6_proc_0 >= 0
 c24: 1185 pi_p_a6_a9 + 1185 pi_p_a6_a5 + 1185 pi_p_a6_a8
      + 1185 pi_d_a6_a0_proc_0 + 1185 pi_d_a6_a2_proc_0 + 1185 pi_d_a6_a3_proc_0
      + 1185 pi_d_a6_a5_proc_0 + 1185 pi_d_a6_a7_proc_0 + 1185 pi_d_a6_a8_proc_0
      + 1185 pi_d_a6_a9_proc_0 + pi_y1_a6 + pi_y2_a6_proc_0 >= 0
 c25: 1093 pi_p_a6_a9 + 1093 pi_p_a6_a5 + 1093 pi_p_a6_a8
      + 1093 pi_d_a6_a0_proc_2 + 1093 pi_d_a6_a1_proc_2 + 1093 pi_d_a6_a2_proc_2
      + 1093 pi_d_a6_a3_proc_2 + 1093 pi_d_a6_a4_proc_2 + 1093 pi_d_a6_a7_proc_2
      + 1093 pi_d_a6_a8_proc_2 + 1093 pi_d_a6_a9_proc_2 + pi_y1_a6
      + pi_y2_a6_proc_2 >= 0
 c26: pi_p_a7_a2 - pi_p_a3_a7 - pi_d_a0_a7_proc_2 - pi_d_a0_a7_proc_0
      + pi_d_a7_a0_proc_2 + pi_d_a7_a0_proc_0 - pi_d_a1_a7_proc_2
      + pi_d_a7_a1_proc_2 - pi_d_a2_a7_proc_2 - pi_d_a2_a7_proc_0
      + pi_d_a7_a2_proc_2 + pi_d_a7_a2_proc_0 - pi_d_a3_a7_proc_2
      - pi_d_a3_a7_proc_0 + pi_d_a7_a3_proc_2 + pi_d_a7_a3_proc_0
      - pi_d_a4_a7_proc_2 + pi_d_a7_a4_proc_2 - pi_d_a5_a7_proc_0
      + pi_d_a7_a5_proc_0 - pi_d_a6_a7_proc_2 - pi_d_a6_a7_proc_0
      + pi_d_a7_a6_proc_2 + pi_d_a7_a6_proc_0 + pi_d_a7_a8_proc_2
      + pi_d_a7_a8_proc_0 - pi_d_a8_a7_proc_2 - pi_d_a8_a7_proc_0
      + pi_d_a7_a9_proc_2 + pi_d_a7_a9_proc_0 - pi_d_a9_a7_proc_2
      - pi_d_a9_a7_proc_0 >= 0
 c27: 941 pi_p_a7_a2 + 941 pi_d_a7_a0_proc_0 + 941 pi_d_a7_a2_proc_0
      + 941 pi_d_a7_a3_proc_0 + 941 pi_d_a7_a5_proc_0 + 941 pi_d_a7_a6_proc_0
      + 941 pi_d_a7_a8_proc_0 + 941 pi_d_a7_a9_proc_0 + pi_y1_a7
      + pi_y2_a7_proc_0 >= 0
 c28: 805 pi_p_a7_a2 + 805 pi_d_a7_a0_proc_2 + 805 pi_d_a7_a1_proc_2
      + 805 pi_d_a7_a2_proc_2 + 805 pi_d_a7_a3_proc_2 + 805 pi_d_a7_a4_proc_2
      + 805 pi_d_a7_a6_proc_2 + 805 pi_d_a7_a8_proc_2 + 805 pi_d_a7_a9_proc_2
      + pi_y1_a7 + pi_y2_a7_proc_2 >= 0
 c29: pi_p_a8_a1 - pi_p_a4_a8 - pi_p_a6_a8 - pi_p_a3_a8 - pi_d_a0_a8_proc_2
      - pi_d_a0_a8_proc_0 - pi_d_a0_a8_proc_1 + pi_d_a8_a0_proc_2
      + pi_d_a8_a0_proc_0 + pi_d_a8_a0_proc_1 - pi_d_a1_a8_proc_2
      - pi_d_a1_a8_proc_1 + pi_d_a8_a1_proc_2 + pi_d_a8_a1_proc_1
      - pi_d_a2_a8_proc_2 - pi_d_a2_a8_proc_0 - pi_d_a2_a8_proc_1
      + pi_d_a8_a2_proc_2 + pi_d_a8_a2_proc_0 + pi_d_a8_a2_proc_1
      - pi_d_a3_a8_proc_2 - pi_d_a3_a8_proc_0 - pi_d_a3_a8_proc_1
      + pi_d_a8_a3_proc_2 + pi_d_a8_a3_proc_0 + pi_d_a8_a3_proc_1
      - pi_d_a4_a8_proc_2 - pi_d_a4_a8_proc_1 + pi_d_a8_a4_proc_2
      + pi_d_a8_a4_proc_1 - pi_d_a5_a8_proc_0 + pi_d_a8_a5_proc_0
      - pi_d_a6_a8_proc_2 - pi_d_a6_a8_proc_0 + pi_d_a8_a6_proc_2
      + pi_d_a8_a6_proc_0 - pi_d_a7_a8_proc_2 - pi_d_a7_a8_proc_0
      + pi_d_a8_a7_proc_2 + pi_d_a8_a7_proc_0 + pi_d_a8_a9_proc_2
      + pi_d_a8_a9_proc_0 + pi_d_a8_a9_proc_1 - pi_d_a9_a8_proc_2
      - pi_d_a9_a8_proc_0 - pi_d_a9_a8_proc_1 >= 0
 c30: 903 pi_p_a8_a1 + 903 pi_d_a8_a0_proc_0 + 903 pi_d_a8_a2_proc_0
      + 903 pi_d_a8_a3_proc_0 + 903 pi_d_a8_a5_proc_0 + 903 pi_d_a8_a6_proc_0
      + 903 pi_d_a8_a7_proc_0 + 903 pi_d_a8_a9_proc_0 + pi_y1_a8
      + pi_y2_a8_proc_0 >= 0
 c31: 758 pi_p_a8_a1 + 758 pi_d_a8_a0_proc_1 + 758 pi_d_a8_a1_proc_1
      + 758 pi_d_a8_a2_proc_1 + 758 pi_d_a8_a3_proc_1 + 758 pi_d_a8_a4_proc_1
      + 758 pi_d_a8_a9_proc_1 + pi_y1_a8 + pi_y2_a8_proc_1 >= 0
 c32: 977 pi_p_a8_a1 + 977 pi_d_a8_a0_proc_2 + 977 pi_d_a8_a1_proc_2
      + 977 pi_d_a8_a2_proc_2 + 977 pi_d_a8_a3_proc_2 + 977 pi_d_a8_a4_proc_2
      + 977 pi_d_a8_a6_proc_2 + 977 pi_d_a8_a7_proc_2 + 977 pi_d_a8_a9_proc_2
      + pi_y1_a8 + pi_y2_a8_proc_2 >= 0
 c33: pi_p_a9_a5 - pi_p_a6_a9 + pi_p_a9_a2 - pi_d_a0_a9_proc_2
      - pi_d_a0_a9_proc_0 - pi_d_a0_a9_proc_1 + pi_d_a9_a0_proc_2
      + pi_d_a9_a0_proc_0 + pi_d_a9_a0_proc_1 - pi_d_a1_a9_proc_2
      - pi_d_a1_a9_proc_1 + pi_d_a9_a1_proc_2 + pi_d_a9_a1_proc_1
      - pi_d_a2_a9_proc_2 - pi_d_a2_a9_proc_0 - pi_d_a2_a9_proc_1
      + pi_d_a9_a2_proc_2 + pi_d_a9_a2_proc_0 + pi_d_a9_a2_proc_1
      - pi_d_a3_a9_proc_2 - pi_d_a3_a9_proc_0 - pi_d_a3_a9_proc_1
      + pi_d_a9_a3_proc_2 + pi_d_a9_a3_proc_0 + pi_d_a9_a3_proc_1
      - pi_d_a4_a9_proc_2 - pi_d_a4_a9_proc_1 + pi_d_a9_a4_proc_2
      + pi_d_a9_a4_proc_1 - pi_d_a5_a9_proc_0 + pi_d_a9_a5_proc_0
      - pi_d_a6_a9_proc_2 - pi_d_a6_a9_proc_0 + pi_d_a9_a6_proc_2
      + pi_d_a9_a6_proc_0 - pi_d_a7_a9_proc_2 - pi_d_a7_a9_proc_0
      + pi_d_a9_a7_proc_2 + pi_d_a9_a7_proc_0 - pi_d_a8_a9_proc_2
      - pi_d_a8_a9_proc_0 - pi_d_a8_a9_proc_1 + pi_d_a9_a8_proc_2
      + pi_d_a9_a8_proc_0 + pi_d_a9_a8_proc_1 >= 0
 c34: 910 pi_p_a9_a5 + 910 pi_p_a9_a2 + 910 pi_d_a9_a0_proc_0
      + 910 pi_d_a9_a2_proc_0 + 910 pi_d_a9_a3_proc_0 + 910 pi_d_a9_a5_proc_0
      + 910 pi_d_a9_a6_proc_0 + 910 pi_d_a9_a7_proc_0 + 910 pi_d_a9_a8_proc_0
      + pi_y1_a9 + pi_y2_a9_proc_0 >= 0
 c35: 799 pi_p_a9_a5 + 799 pi_p_a9_a2 + 799 pi_d_a9_a0_proc_1
      + 799 pi_d_a9_a1_proc_1 + 799 pi_d_a9_a2_proc_1 + 799 pi_d_a9_a3_proc_1
      + 799 pi_d_a9_a4_proc_1 + 799 pi_d_a9_a8_proc_1 + pi_y1_a9
      + pi_y2_a9_proc_1 >= 0
 c36: 420 pi_p_a9_a5 + 420 pi_p_a9_a2 + 420 pi_d_a9_a0_proc_2
      + 420 pi_d_a9_a1_proc_2 + 420 pi_d_a9_a2_proc_2 + 420 pi_d_a9_a3_proc_2
      + 420 pi_d_a9_a4_proc_2 + 420 pi_d_a9_a6_proc_2 + 420 pi_d_a9_a7_proc_2
      + 420 pi_d_a9_a8_proc_2 + pi_y1_a9 + pi_y2_a9_proc_2 >= 0

Bounds
       pi_y1_a0 Free
       pi_y1_a1 Free
       pi_y1_a2 Free
       pi_y1_a3 Free
       pi_y1_a4 Free
       pi_y1_a5 Free
       pi_y1_a6 Free
       pi_y1_a7 Free
       pi_y1_a8 Free
       pi_y1_a9 Free
End
