benchmark/results/graph__10-1000-0.10-03_9/graph__10-1000-0.10-03_9_QuintonOs_Benders_aux.txt
solution for: Quinton Bounded Benders_auxiliary_sub
objective: 0.000286697
status: OPTIMAL_SOLUTION(2)
pi_p_a1_a0=0.000
pi_p_a0_a3=0.000
pi_p_a8_a1=0.000
pi_p_a3_a8=0.000
pi_y1_a0=-0.187
pi_y1_a1=-0.337
pi_y1_a3=-0.258
pi_y1_a8=-0.217
pi_y2_a1_proc_1=0.203
